WARNING: for repeatability, setting FPU to use double precision
============================[ Problem Statistics ]=============================
|                                                                             |
|  Number of variables:            50                                         |
|  Number of clauses:             218                                         |
|  Parse time:                   0.00 s                                       |
|                                                                             |
============================[ Search Statistics ]==============================
| Conflicts |          ORIGINAL         |          LEARNT          | Progress |
|           |    Vars  Clauses Literals |    Limit  Clauses Lit/Cl |          |
===============================================================================
===============================================================================
restarts              : 1
conflicts             : 67             (44966 /sec)
decisions             : 82             (0.00 % random) (55034 /sec)
propagations          : 795            (533557 /sec)
conflict literals     : 224            (16.42 % deleted)
Memory used           : 20.00 MB
CPU time              : 0.00149 s

UNSATISFIABLE
